(declare-fun temp60287_1 () (_ BitVec 64))
(declare-fun temp60287_2 () (_ BitVec 64))
(declare-fun var77740 () (_ BitVec 64))
(declare-fun k!0 () Bool)
(declare-fun ARGNAME_input_1_NAMEEND_DIM () (_ BitVec 64))
(declare-fun ARGNAME_data_format_NAMEEND_STRFMT () (_ BitVec 64))
(declare-fun temp60287_3 () (_ BitVec 64))
(declare-fun ARGNAME_input_2_NAMEEND_DIM () (_ BitVec 64))
(declare-fun var77770 () (_ BitVec 64))
(declare-fun temp60287_4 () (_ BitVec 64))
(declare-fun temp60287_5 () (_ BitVec 64))
(declare-fun ARGNAME_input_1_NAMEEND_DIMSIZE
             ()
             (Array (_ BitVec 64) (_ BitVec 64)))
(declare-fun temp60287_6 () (_ BitVec 64))
(declare-fun temp60287_7 () (_ BitVec 64))
(declare-fun temp60287_8 () (_ BitVec 64))
(declare-fun temp60287_9 () (_ BitVec 64))
(declare-fun temp60287_10 () (_ BitVec 64))
(declare-fun temp60287_11 () (_ BitVec 64))
(declare-fun temp60287_12 () (_ BitVec 64))
(declare-fun temp60287_13 () (_ BitVec 64))
(declare-fun temp60287_14 () (_ BitVec 64))
(declare-fun temp60287_15 () (_ BitVec 64))
(declare-fun temp60287_16 () (_ BitVec 64))
(declare-fun temp60287_17 () (_ BitVec 64))
(declare-fun temp60287_18 () (_ BitVec 64))
(declare-fun var77799 () (_ BitVec 64))
(declare-fun temp60287_19 () (_ BitVec 64))
(declare-fun ARGNAME_input_2_NAMEEND_DIMSIZE
             ()
             (Array (_ BitVec 64) (_ BitVec 64)))
(declare-fun temp60287_20 () (_ BitVec 64))
(declare-fun temp60287_21 () (_ BitVec 64))
(declare-fun temp60287_22 () (_ BitVec 64))
(declare-fun temp60287_23 () (_ BitVec 64))
(declare-fun temp60287_24 () (_ BitVec 64))
(declare-fun temp60287_25 () (_ BitVec 64))
(declare-fun temp60287_26 () (_ BitVec 64))
(declare-fun temp60287_27 () (_ BitVec 64))
(declare-fun temp60287_28 () (_ BitVec 64))
(declare-fun temp60287_29 () (_ BitVec 64))
(declare-fun temp60287_30 () (_ BitVec 64))
(declare-fun temp60287_31 () (_ BitVec 64))
(declare-fun temp60287_32 () (_ BitVec 64))
(declare-fun var77832 () (_ BitVec 64))
(declare-fun temp60287_33 () (_ BitVec 64))
(declare-fun temp60287_34 () (_ BitVec 64))
(declare-fun var77833 () (_ BitVec 64))
(declare-fun var77834 () (_ BitVec 64))
(declare-fun temp60287_35 () (_ BitVec 64))
(declare-fun temp60287_36 () (_ BitVec 64))
(declare-fun var275510 () (_ BitVec 64))
(declare-fun temp60287_37 () (_ BitVec 64))
(declare-fun var275528 () (_ BitVec 64))
(declare-fun temp60287_38 () (_ BitVec 64))
(declare-fun temp60287_39 () (_ BitVec 64))
(declare-fun var406582 () (_ BitVec 64))
(declare-fun temp60287_40 () (_ BitVec 64))
(declare-fun var406600 () (_ BitVec 64))
(declare-fun temp60287_41 () (_ BitVec 64))
(declare-fun temp60287_43 () (_ BitVec 64))
(declare-fun temp60287_42 () (_ BitVec 64))
(declare-fun temp60287_45 () (_ BitVec 64))
(declare-fun temp60287_44 () (_ BitVec 64))
(declare-fun temp60287_46 () (_ BitVec 64))
(declare-fun var537654 () (_ BitVec 64))
(declare-fun temp60287_47 () (_ BitVec 64))
(declare-fun var537672 () (_ BitVec 64))
(declare-fun temp60287_48 () (_ BitVec 64))
(declare-fun temp60287_50 () (_ BitVec 64))
(declare-fun temp60287_49 () (_ BitVec 64))
(declare-fun temp60287_52 () (_ BitVec 64))
(declare-fun temp60287_51 () (_ BitVec 64))
(declare-fun temp60287_54 () (_ BitVec 64))
(declare-fun temp60287_53 () (_ BitVec 64))
(declare-fun temp60287_56 () (_ BitVec 64))
(declare-fun temp60287_55 () (_ BitVec 64))
(declare-fun temp60287_58 () (_ BitVec 64))
(declare-fun temp60287_57 () (_ BitVec 64))
(declare-fun temp60287_59 () (_ BitVec 64))
(declare-fun var730187 () (_ BitVec 64))
(declare-fun var730166 () (_ BitVec 64))
(declare-fun var664598 () (_ BitVec 64))
(declare-fun temp60287_60 () (_ BitVec 64))
(declare-fun temp60287_61 () (_ BitVec 64))
(declare-fun var861259 () (_ BitVec 64))
(declare-fun var861238 () (_ BitVec 64))
(declare-fun var664611 () (_ BitVec 64))
(declare-fun temp60287_62 () (_ BitVec 64))
(declare-fun temp60287_63 () (_ BitVec 64))
(declare-fun var1057842 () (_ BitVec 64))
(declare-fun temp60287_64 () (_ BitVec 64))
(declare-fun var1123378 () (_ BitVec 64))
(declare-fun temp60287_65 () (_ BitVec 64))
(declare-fun var1188914 () (_ BitVec 64))
(declare-fun temp60287_67 () (_ BitVec 64))
(declare-fun temp60287_66 () (_ BitVec 64))
(declare-fun temp60287_69 () (_ BitVec 64))
(declare-fun temp60287_68 () (_ BitVec 64))
(declare-fun temp60287_70 () (_ BitVec 64))
(declare-fun var78544 () (_ BitVec 64))
(declare-fun temp60287_71 () (_ BitVec 64))
(declare-fun var78545 () (_ BitVec 64))
(assert (or (= ARGNAME_data_format_NAMEEND_STRFMT #x0000000000000000)
    (= ARGNAME_data_format_NAMEEND_STRFMT #x0000000000000001)
    (= ARGNAME_data_format_NAMEEND_STRFMT #x0000000000000002)
    (= ARGNAME_data_format_NAMEEND_STRFMT #x0000000000000003)
    (= ARGNAME_data_format_NAMEEND_STRFMT #x0000000000000004)
    (= ARGNAME_data_format_NAMEEND_STRFMT #x0000000000000005)))
(assert (= temp60287_1 #x0000000000000005))
(assert (= var77740
   (ite (= ARGNAME_input_1_NAMEEND_DIM temp60287_1)
        #x0000000000000001
        #x0000000000000000)))
(assert (= temp60287_2 #x0000000000000001))
(assert (= var77740 temp60287_2))
(assert (= temp60287_3 #x0000000000000005))
(assert (= var77770
   (ite (= ARGNAME_input_2_NAMEEND_DIM temp60287_3)
        #x0000000000000001
        #x0000000000000000)))
(assert (= temp60287_4 #x0000000000000001))
(assert (= var77770 temp60287_4))
(assert (= temp60287_5 #x0000000000000000))
(assert (= temp60287_6 (select ARGNAME_input_1_NAMEEND_DIMSIZE temp60287_5)))
(assert (= temp60287_7 #x0000000000000001))
(assert (= temp60287_8 (select ARGNAME_input_1_NAMEEND_DIMSIZE temp60287_7)))
(assert (= temp60287_9 #x0000000000000002))
(assert (= temp60287_10 (select ARGNAME_input_1_NAMEEND_DIMSIZE temp60287_9)))
(assert (= temp60287_11 #x0000000000000003))
(assert (= temp60287_12 (select ARGNAME_input_1_NAMEEND_DIMSIZE temp60287_11)))
(assert (= temp60287_13 #x0000000000000004))
(assert (= temp60287_14 (select ARGNAME_input_1_NAMEEND_DIMSIZE temp60287_13)))
(assert (= temp60287_15 #x0000000000000005))
(assert (= temp60287_16 (select ARGNAME_input_1_NAMEEND_DIMSIZE temp60287_15)))
(assert (= temp60287_17 #x0000000000000003))
(assert (= temp60287_18 (select ARGNAME_input_1_NAMEEND_DIMSIZE temp60287_17)))
(assert (= var77799 temp60287_18))
(assert (= temp60287_19 #x0000000000000000))
(assert (= temp60287_20 (select ARGNAME_input_2_NAMEEND_DIMSIZE temp60287_19)))
(assert (= temp60287_21 #x0000000000000001))
(assert (= temp60287_22 (select ARGNAME_input_2_NAMEEND_DIMSIZE temp60287_21)))
(assert (= temp60287_23 #x0000000000000002))
(assert (= temp60287_24 (select ARGNAME_input_2_NAMEEND_DIMSIZE temp60287_23)))
(assert (= temp60287_25 #x0000000000000003))
(assert (= temp60287_26 (select ARGNAME_input_2_NAMEEND_DIMSIZE temp60287_25)))
(assert (= temp60287_27 #x0000000000000004))
(assert (= temp60287_28 (select ARGNAME_input_2_NAMEEND_DIMSIZE temp60287_27)))
(assert (= temp60287_29 #x0000000000000005))
(assert (= temp60287_30 (select ARGNAME_input_2_NAMEEND_DIMSIZE temp60287_29)))
(assert (= temp60287_31 #x0000000000000004))
(assert (= temp60287_32 (select ARGNAME_input_2_NAMEEND_DIMSIZE temp60287_31)))
(assert (= var77832 temp60287_32))
(assert (= temp60287_33 #x0000000000000004))
(assert (= temp60287_34 (select ARGNAME_input_1_NAMEEND_DIMSIZE temp60287_33)))
(assert (= var77833 temp60287_34))
(assert (= var77834 (ite (= var77832 var77833) #x0000000000000001 #x0000000000000000)))
(assert (= temp60287_35 #x0000000000000001))
(assert (= var77834 temp60287_35))
(assert (= temp60287_36 #x0000000000000001))
(assert (= var275510 temp60287_36))
(assert (= temp60287_37 #x0000000000000001))
(assert (= var275528
   (ite (bvslt var275510 temp60287_37) #x0000000000000001 #x0000000000000000)))
(assert (= temp60287_38 #x0000000000000000))
(assert (= var275528 temp60287_38))
(assert (= temp60287_39 #x0000000000000001))
(assert (= var406582 temp60287_39))
(assert (= temp60287_40 #x0000000000000001))
(assert (= var406600
   (ite (bvslt var406582 temp60287_40) #x0000000000000001 #x0000000000000000)))
(assert (= temp60287_41 #x0000000000000000))
(assert (= var406600 temp60287_41))
(assert (= temp60287_43 #x0000000000000000))
(assert (= temp60287_42 temp60287_43))
(assert (= temp60287_45 #x0000000000000000))
(assert (= temp60287_44 temp60287_45))
(assert (= temp60287_46 #x0000000000000001))
(assert (= var537654 temp60287_46))
(assert (= temp60287_47 #x0000000000000001))
(assert (= var537672
   (ite (bvslt var537654 temp60287_47) #x0000000000000001 #x0000000000000000)))
(assert (= temp60287_48 #x0000000000000000))
(assert (= var537672 temp60287_48))
(assert (= temp60287_50 #x0000000000000000))
(assert (= temp60287_49 temp60287_50))
(assert (= temp60287_52 #x0000000000000000))
(assert (= temp60287_51 temp60287_52))
(assert (= temp60287_54 #x00000000000000ff))
(assert (= temp60287_53 temp60287_54))
(assert (= temp60287_56 #x00000000000000ff))
(assert (= temp60287_55 temp60287_56))
(assert (= temp60287_58 #x00000000000000ff))
(assert (= temp60287_57 temp60287_58))
(assert (= temp60287_59 #x0000000000000000))
(assert (= var730187 temp60287_59))
(assert (= var730166 var730187))
(assert (= var664598 var730166))
(assert (= temp60287_60 #x0000000000000000))
(assert (= var664598 temp60287_60))
(assert (= temp60287_61 #x0000000000000000))
(assert (= var861259 temp60287_61))
(assert (= var861238 var861259))
(assert (= var664611 var861238))
(assert (= temp60287_62 #x0000000000000000))
(assert (= var664611 temp60287_62))
(assert (= temp60287_63 #x0000000000008000))
(assert (= var1057842 temp60287_63))
(assert (= temp60287_64 #x0000000000040000))
(assert (= var1123378 temp60287_64))
(assert (= temp60287_65 #x0000000000200000))
(assert (= var1188914 temp60287_65))
(assert (= temp60287_67 #x0000000000000001))
(assert (= temp60287_66 temp60287_67))
(assert (= temp60287_69 #x0000000000000001))
(assert (= temp60287_68 temp60287_69))
(assert (= temp60287_70 #x0000000000000000))
(assert (= var78544 temp60287_70))
(assert (= temp60287_71 #x0000000000000001))
(assert (= var78545 (bvadd var78544 temp60287_71)))
(model-add temp60287_1 () (_ BitVec 64) #x0000000000000005)
(model-add temp60287_2 () (_ BitVec 64) #x0000000000000001)
(model-add var77740 () (_ BitVec 64) #x0000000000000001)
(model-del k!0)
(model-add ARGNAME_input_1_NAMEEND_DIM
           ()
           (_ BitVec 64)
           (ite k!0 #x0000000000000005 (bvnot #x0000000000000005)))

